# Solution for model problem_
# Objective value = 5.9010997119066844e+04
x(0_0) 0
x(0_1) 0
x(0_2) 0
x(0_3) 0
x(0_4) 0
x(0_5) 0
x(0_6) 0
x(0_7) 0
x(0_8) 0
x(0_9) 1
x(1_10) 0
x(1_11) 0
x(1_12) 0
x(1_13) 0
x(1_14) 0
x(1_15) 0
x(1_16) 0
x(1_17) 0
x(1_18) 0
x(1_19) 1
x(1_20) 0
x(1_21) 0
x(1_22) 0
x(1_23) 0
x(1_24) 0
x(2_25) 0
x(2_26) 0
x(2_27) 0
x(2_28) 0
x(2_29) 0
x(2_30) 0
x(2_31) 0
x(2_32) 0
x(2_33) 1
x(2_34) 0
x(2_35) 0
x(2_36) 0
x(3_37) 0
x(3_38) 0
x(3_39) 0
x(3_40) 0
x(3_41) 0
x(3_42) 0
x(3_43) 0
x(3_44) 1
x(3_45) 0
x(3_46) 0
x(4_47) 0
x(4_48) 0
x(4_49) 1
x(4_50) 0
x(4_51) 0
x(4_52) 0
x(4_53) 0
x(4_54) 0
x(4_55) 0
x(4_56) 0
x(4_57) 0
x(4_58) 0
x(4_59) 0
x(4_60) 0
x(4_61) 0
x(4_62) 0
x(4_63) 0
x(5_64) 0
x(5_65) 0
x(5_66) 0
x(5_67) 0
x(5_68) 0
x(5_69) 0
x(5_70) 0
x(5_71) 0
x(5_72) 0
x(5_73) 0
x(5_74) 0
x(5_75) 0
x(5_76) 0
x(5_77) 1
x(5_78) 0
x(5_79) 0
x(5_80) 0
x(5_81) 0
x(6_82) 0
x(6_83) 0
x(6_84) 0
x(6_85) 0
x(6_86) 0
x(6_87) 0
x(6_88) 1
x(6_89) 0
x(6_90) 0
x(6_91) 0
x(6_92) 0
x(6_93) 0
x(7_94) 0
x(7_95) 0
x(7_96) 0
x(7_97) 0
x(7_98) 0
x(7_99) 0
x(7_100) 0
x(7_101) 0
x(7_102) 0
x(7_103) 0
x(7_104) 0
x(7_105) 0
x(7_106) 0
x(7_107) 1
x(7_108) 0
x(7_109) 0
x(7_110) 0
x(8_111) 0
x(8_112) 0
x(8_113) 0
x(8_114) 1
x(8_115) 0
x(8_116) 0
x(8_117) 0
x(8_118) 0
x(8_119) 0
x(8_120) 0
x(8_121) 0
x(8_122) 0
x(8_123) 0
x(8_124) 0
x(8_125) 0
x(8_126) 0
x(8_127) 0
x(8_128) 0
x(8_129) 0
x(8_130) 0
x(9_131) 0
x(9_132) 0
x(9_133) 0
x(9_134) 0
x(9_135) 0
x(9_136) 0
x(9_137) 0
x(9_138) 0
x(9_139) 0
x(9_140) 1
x(10_141) 0
x(10_142) 0
x(10_143) 1
x(10_144) 0
x(10_145) 0
x(10_146) 0
x(10_147) 0
x(10_148) 0
x(10_149) 0
x(10_150) 0
x(10_151) 0
x(10_152) 0
x(10_153) 0
x(11_154) 0
x(11_155) 1
x(11_156) 0
x(11_157) 0
x(11_158) 0
x(11_159) 0
x(11_160) 0
x(11_161) 0
x(11_162) 0
x(11_163) 0
x(11_164) 0
x(11_165) 0
x(11_166) 0
x(11_167) 0
x(11_168) 0
x(11_169) 0
x(11_170) 0
x(11_171) 0
x(11_172) 0
x(11_173) 0
x(12_174) 0
x(12_175) 0
x(12_176) 0
x(12_177) 0
x(12_178) 0
x(12_179) 0
x(12_180) 0
x(12_181) 1
x(12_182) 0
x(12_183) 0
x(12_184) 0
x(12_185) 0
x(12_186) 0
x(12_187) 0
x(12_188) 0
x(12_189) 0
x(12_190) 0
x(12_191) 0
x(12_192) 0
x(13_193) 0
x(13_194) 0
x(13_195) 0
x(13_196) 0
x(13_197) 1
x(13_198) 0
x(13_199) 0
x(13_200) 0
x(13_201) 0
x(13_202) 0
x(13_203) 0
x(14_204) 0
x(14_205) 0
x(14_206) 0
x(14_207) 0
x(14_208) 0
x(14_209) 1
x(14_210) 0
x(14_211) 0
x(14_212) 0
x(14_213) 0
x(15_214) 0
x(15_215) 1
x(15_216) 0
x(15_217) 0
x(15_218) 0
x(15_219) 0
x(15_220) 0
x(15_221) 0
x(15_222) 0
x(15_223) 0
x(15_224) 0
x(15_225) 0
x(16_226) 0
x(16_227) 0
x(16_228) 0
x(16_229) 0
x(16_230) 0
x(16_231) 0
x(16_232) 0
x(16_233) 0
x(16_234) 0
x(16_235) 0
x(16_236) 0
x(16_237) 1
x(16_238) 0
x(16_239) 0
x(16_240) 0
x(16_241) 0
x(16_242) 0
x(16_243) 0
x(16_244) 0
x(16_245) 0
x(17_246) 0
x(17_247) 0
x(17_248) 0
x(17_249) 0
x(17_250) 0
x(17_251) 0
x(17_252) 0
x(17_253) 0
x(17_254) 0
x(17_255) 0
x(17_256) 1
x(17_257) 0
x(17_258) 0
x(17_259) 0
x(17_260) 0
x(17_261) 0
x(17_262) 0
x(17_263) 0
x(17_264) 0
x(18_265) 0
x(18_266) 0
x(18_267) 0
x(18_268) 0
x(18_269) 0
x(18_270) 0
x(18_271) 0
x(18_272) 0
x(18_273) 0
x(18_274) 1
x(18_275) 0
x(18_276) 0
x(18_277) 0
x(18_278) 0
x(18_279) 0
x(18_280) 0
x(18_281) 0
x(18_282) 0
x(19_283) 1
x(19_284) 0
x(19_285) 0
x(19_286) 0
x(19_287) 0
x(19_288) 0
x(19_289) 0
x(19_290) 0
x(19_291) 0
x(19_292) 0
x(19_293) 0
x(19_294) 0
x(19_295) 0
x(20_296) 0
x(20_297) 0
x(20_298) 0
x(20_299) 0
x(20_300) 0
x(20_301) 0
x(20_302) 0
x(20_303) 0
x(20_304) 0
x(20_305) 0
x(20_306) 0
x(20_307) 0
x(20_308) 0
x(20_309) 0
x(20_310) 0
x(20_311) 0
x(20_312) 1
x(20_313) 0
x(20_314) 0
x(21_315) 0
x(21_316) 0
x(21_317) 0
x(21_318) 0
x(21_319) 0
x(21_320) 0
x(21_321) 0
x(21_322) 0
x(21_323) 0
x(21_324) 1
x(21_325) 0
x(21_326) 0
x(21_327) 0
x(21_328) 0
x(21_329) 0
x(21_330) 0
x(21_331) 0
x(21_332) 0
x(21_333) 0
x(22_334) 0
x(22_335) 0
x(22_336) 0
x(22_337) 1
x(22_338) 0
x(22_339) 0
x(22_340) 0
x(22_341) 0
x(22_342) 0
x(22_343) 0
x(22_344) 0
x(22_345) 0
x(22_346) 0
x(23_347) 0
x(23_348) 0
x(23_349) 0
x(23_350) 0
x(23_351) 0
x(23_352) 0
x(23_353) 0
x(23_354) 0
x(23_355) 0
x(23_356) 0
x(23_357) 0
x(23_358) 0
x(23_359) 0
x(23_360) 0
x(23_361) 0
x(23_362) 0
x(23_363) 0
x(23_364) 1
x(23_365) 0
x(24_366) 0
x(24_367) 0
x(24_368) 1
x(24_369) 0
x(24_370) 0
x(24_371) 0
x(24_372) 0
x(24_373) 0
x(24_374) 0
x(24_375) 0
x(24_376) 0
x(24_377) 0
x(24_378) 0
x(25_379) 0
x(25_380) 0
x(25_381) 0
x(25_382) 0
x(25_383) 0
x(25_384) 0
x(25_385) 0
x(25_386) 0
x(25_387) 1
x(25_388) 0
x(25_389) 0
x(25_390) 0
x(25_391) 0
x(25_392) 0
x(25_393) 0
x(26_394) 0
x(26_395) 0
x(26_396) 0
x(26_397) 0
x(26_398) 0
x(26_399) 0
x(26_400) 0
x(26_401) 0
x(26_402) 0
x(26_403) 0
x(26_404) 0
x(26_405) 1
x(26_406) 0
x(26_407) 0
x(26_408) 0
x(26_409) 0
x(26_410) 0
x(26_411) 0
x(26_412) 0
x(27_413) 0
x(27_414) 0
x(27_415) 0
x(27_416) 0
x(27_417) 0
x(27_418) 0
x(27_419) 1
x(27_420) 0
x(27_421) 0
x(27_422) 0
x(27_423) 0
x(27_424) 0
x(28_425) 0
x(28_426) 0
x(28_427) 0
x(28_428) 0
x(28_429) 0
x(28_430) 0
x(28_431) 0
x(28_432) 0
x(28_433) 0
x(28_434) 0
x(28_435) 0
x(28_436) 0
x(28_437) 0
x(28_438) 1
x(28_439) 0
x_1_0 1.1670074306614697e+02
s_1_0 0
z_1_0 0
x_1_1 1.1681096763536334e+02
s_1_1 0
z_1_1 0
x_1_2 0
s_1_2 8.9214869122952223e-01
z_1_2 1
x_1_3 0
s_1_3 1.1597516876645386e+00
z_1_3 1
x_1_4 1.1471650198474526e+02
s_1_4 0
z_1_4 0
x_1_5 1.1444274604693055e+02
s_1_5 0
z_1_5 0
x_1_6 0
s_1_6 5.7848077954258770e-01
z_1_6 1
x_1_7 1.1651230454910547e+02
s_1_7 0
z_1_7 0
x_1_8 1.1637361436337233e+02
s_1_8 0
z_1_8 0
x_1_9 1.1571045625582337e+02
s_1_9 0
z_1_9 0
x_1_10 4.9999532080470286e+04
s_1_10 5.0000467919529707e+04
z_1_10 5.0000467919529712e-01
x_1_11 0
s_1_11 5.3661593678407371e-01
z_1_11 1
x_1_12 1.1716384237841703e+02
s_1_12 0
z_1_12 0
x_1_13 1.1702650941349566e+02
s_1_13 0
z_1_13 0
x_1_14 0
s_1_14 8.1693011731840670e-01
z_1_14 1
x_1_15 1.1665420761145651e+02
s_1_15 0
z_1_15 0
x_1_16 0
s_1_16 7.1921969600953162e-01
z_1_16 1
x_1_17 0
s_1_17 1.0860480722039938e+00
z_1_17 1
x_1_18 1.1635502282436937e+02
s_1_18 0
z_1_18 0
x_1_19 1.1557760644797236e+02
s_1_19 0
z_1_19 0
x_1_20 1.1609910585731268e+02
s_1_20 0
z_1_20 0
x_1_21 1.1577454783022404e+02
s_1_21 0
z_1_21 0
x_1_22 1.1634747129306197e+02
s_1_22 0
z_1_22 0
x_1_23 1.1657738201040775e+02
s_1_23 0
z_1_23 0
x_1_24 0
s_1_24 8.0135642783716321e-01
z_1_24 1
x_1_25 0
s_1_25 6.1535205192922149e-01
z_1_25 1
x_1_26 4.9999501037441296e+04
s_1_26 5.0000498962558704e+04
z_1_26 0.500004989625587
x_1_27 1.1722179818525910e+02
s_1_27 0
z_1_27 0
x_1_28 1.1567613472230732e+02
s_1_28 0
z_1_28 0
x_1_29 1.1699525086767972e+02
s_1_29 0
z_1_29 0
x_1_30 0
s_1_30 9.0290079056285322e-01
z_1_30 1
x_1_31 1.1710567566108148e+02
s_1_31 0
z_1_31 0
x_1_32 0
s_1_32 8.8071147317532450e-01
z_1_32 1
x_1_33 0
s_1_33 1.3587661811616272e+00
z_1_33 1
x_1_34 0
s_1_34 4.7160482336767018e-01
z_1_34 1
x_1_35 0
s_1_35 0.849172430112958
z_1_35 1
x_1_36 1.1700523475557566e+02
s_1_36 0
z_1_36 0
x_1_37 1.1744028579932638e+02
s_1_37 0
z_1_37 0
x_1_38 0
s_1_38 9.5015894807875156e-01
z_1_38 1
x_1_39 4.9999380447323318e+04
s_1_39 5.0000619552676682e+04
z_1_39 5.0000619552676684e-01
x_1_40 1.1576529950276017e+02
s_1_40 0
z_1_40 0
x_1_41 0
s_1_41 6.0747861443087459e-01
z_1_41 1
x_1_42 1.1667707026377320e+02
s_1_42 0
z_1_42 0
x_1_43 0
s_1_43 1.0081855179741979e+00
z_1_43 1
x_1_44 1.1613828314002603e+02
s_1_44 0
z_1_44 0
x_1_45 1.1644720750860870e+02
s_1_45 0
z_1_45 0
x_1_46 0
s_1_46 9.5182220684364438e-01
z_1_46 1
x_1_47 1.1667558816075325e+02
s_1_47 0
z_1_47 0
x_1_48 1.1653263831697404e+02
s_1_48 0
z_1_48 0
x_1_49 0
s_1_49 1.1017247918061912e+00
z_1_49 1
x_1_50 1.1591032513976097e+02
s_1_50 0
z_1_50 0
x_1_51 1.1757365066930652e+02
s_1_51 0
z_1_51 0
x_1_52 0
s_1_52 7.4318337797376444e-01
z_1_52 1
x_1_53 1.1683232535794377e+02
s_1_53 0
z_1_53 0
x_1_54 0
s_1_54 8.4798063081689179e-01
z_1_54 1
x_1_55 1.1731944876164198e+02
s_1_55 0
z_1_55 0
x_1_56 1.1568489258922637e+02
s_1_56 0
z_1_56 0
x_1_57 0
s_1_57 0.899775875848718
z_1_57 1
x_1_58 1.1751013559522107e+02
s_1_58 0
z_1_58 0
x_1_59 1.1573598237335682e+02
s_1_59 0
z_1_59 0
x_1_60 0
s_1_60 1.2806411873316392e+00
z_1_60 1
x_1_61 1.1592146311025135e+02
s_1_61 0
z_1_61 0
x_1_62 0
s_1_62 0.708122560638003
z_1_62 1
x_1_63 1.1695949972793460e+02
s_1_63 0
z_1_63 0
x_1_64 1.1701209411025047e+02
s_1_64 0
z_1_64 0
x_1_65 0
s_1_65 1.1378556729760021e+00
z_1_65 1
x_1_66 0
s_1_66 9.5500213024206460e-01
z_1_66 1
x_1_67 0
s_1_67 7.9297588556073606e-01
z_1_67 1
x_1_68 1.1720321094244719e+02
s_1_68 0
z_1_68 0
x_1_69 0
s_1_69 6.2893928587436676e-01
z_1_69 1
x_1_70 0
s_1_70 6.1640775128034875e-01
z_1_70 1
x_1_71 0
s_1_71 5.6125982989033218e-01
z_1_71 1
x_1_72 1.1709171408467228e+02
s_1_72 0
z_1_72 0
x_1_73 1.1703184083057567e+02
s_1_73 0
z_1_73 0
x_1_74 0
s_1_74 4.3216669978573918e-01
z_1_74 1
x_1_75 1.1747132539376616e+02
s_1_75 0
z_1_75 0
x_1_76 1.1646207443252206e+02
s_1_76 0
z_1_76 0
x_1_77 4.9999484857919073e+04
s_1_77 5.0000515142080927e+04
z_1_77 5.0000515142080926e-01
x_1_78 1.1635496258176863e+02
s_1_78 0
z_1_78 0
x_1_79 1.1605035466328263e+02
s_1_79 0
z_1_79 0
x_1_80 1.1654438990293420e+02
s_1_80 0
z_1_80 0
x_1_81 1.1426773497648537e+02
s_1_81 0
z_1_81 0
x_1_82 1.1690902931720484e+02
s_1_82 0
z_1_82 0
x_1_83 0
s_1_83 8.9569416176527739e-01
z_1_83 1
x_1_84 0
s_1_84 8.8393464311957359e-01
z_1_84 1
x_1_85 0
s_1_85 6.0390999400988221e-01
z_1_85 1
x_1_86 4.9999505756807863e+04
s_1_86 5.0000494243192137e+04
z_1_86 5.0000494243192140e-01
x_1_87 0
s_1_87 1.0852360082790256e+00
z_1_87 1
x_1_88 1.1687228283286095e+02
s_1_88 0
z_1_88 0
x_1_89 0
s_1_89 9.3826837092638016e-01
z_1_89 1
x_1_90 0
s_1_90 8.6757341912016273e-01
z_1_90 1
x_1_91 1.1749876577034593e+02
s_1_91 0
z_1_91 0
x_1_92 0
s_1_92 0.43078045360744
z_1_92 1
x_1_93 1.1678096863627434e+02
s_1_93 0
z_1_93 0
x_1_94 1.1668493353016675e+02
s_1_94 0
z_1_94 0
x_1_95 1.1658201690856367e+02
s_1_95 0
z_1_95 0
x_1_96 0
s_1_96 6.6312794713303447e-01
z_1_96 1
x_1_97 0
s_1_97 9.9749057699227706e-01
z_1_97 1
x_1_98 1.1778578336536884e+02
s_1_98 0
z_1_98 0
x_1_99 0
s_1_99 6.7274849116802216e-01
z_1_99 1
x_1_100 1.1575009235739708e+02
s_1_100 0
z_1_100 0
x_1_101 1.1729256867617369e+02
s_1_101 0
z_1_101 0
x_1_102 1.1684101012907922e+02
s_1_102 0
z_1_102 0
x_1_103 1.1608886032272130e+02
s_1_103 0
z_1_103 0
x_1_104 1.1593109514657408e+02
s_1_104 0
z_1_104 0
x_1_105 0
s_1_105 7.3768709111027420e-01
z_1_105 1
x_1_106 117.553578147199
s_1_106 0
z_1_106 0
x_1_107 1.1673588560335338e+02
s_1_107 0
z_1_107 0
x_1_108 0
s_1_108 1.0228104028210510e+00
z_1_108 1
x_1_109 0
s_1_109 1.3415529150515795e+00
z_1_109 1
x_1_110 1.1745979984104633e+02
s_1_110 0
z_1_110 0
x_1_111 1.1666272426955402e+02
s_1_111 0
z_1_111 0
x_1_112 0
s_1_112 9.0996148844715208e-01
z_1_112 1
x_1_113 1.1665398386772722e+02
s_1_113 0
z_1_113 0
x_1_114 1.1739337389543653e+02
s_1_114 0
z_1_114 0
x_1_115 1.1740233800839633e+02
s_1_115 0
z_1_115 0
x_1_116 0
s_1_116 3.7689289991976693e-01
z_1_116 1
x_1_117 1.1740171997249126e+02
s_1_117 0
z_1_117 0
x_1_118 0
s_1_118 7.1403249795548618e-01
z_1_118 1
x_1_119 1.1621426461078227e+02
s_1_119 0
z_1_119 0
x_1_120 1.1652687337622046e+02
s_1_120 0
z_1_120 0
x_1_121 1.1681647183559835e+02
s_1_121 0
z_1_121 0
x_1_122 1.1767005906067789e+02
s_1_122 0
z_1_122 0
x_1_123 1.1656624672934413e+02
s_1_123 0
z_1_123 0
x_1_124 0
s_1_124 6.8758067802991718e-01
z_1_124 1
x_1_125 0
s_1_125 1.2798516598995775e+00
z_1_125 1
x_1_126 1.1637429234012961e+02
s_1_126 0
z_1_126 0
x_1_127 0
s_1_127 1.0040357601828873e+00
z_1_127 1
x_1_128 1.1677461364492774e+02
s_1_128 0
z_1_128 0
x_1_129 0
s_1_129 8.0877637909725308e-01
z_1_129 1
x_1_130 4.9999538756934926e+04
s_1_130 5.0000461243065074e+04
z_1_130 5.0000461243065075e-01
x_1_131 1.1706144840875641e+02
s_1_131 0
z_1_131 0
x_1_132 0
s_1_132 0.657609986141324
z_1_132 1
x_1_133 1.1743015761976130e+02
s_1_133 0
z_1_133 0
x_1_134 1.1679969795048237e+02
s_1_134 0
z_1_134 0
x_1_135 0
s_1_135 7.8902778949122876e-01
z_1_135 1
x_1_136 1.1667638731771149e+02
s_1_136 0
z_1_136 0
x_1_137 1.1799045547470450e+02
s_1_137 0
z_1_137 0
x_1_138 1.1759125855751336e+02
s_1_138 0
z_1_138 0
x_1_139 1.1671809802995995e+02
s_1_139 0
z_1_139 0
x_1_140 1.1708370724879205e+02
s_1_140 0
z_1_140 0
x_1_141 1.1667281821370125e+02
s_1_141 0
z_1_141 0
x_1_142 1.1373880456760526e+02
s_1_142 0
z_1_142 0
x_1_143 1.1559344394505024e+02
s_1_143 0
z_1_143 0
x_1_144 1.1738324048928916e+02
s_1_144 0
z_1_144 0
x_1_145 0
s_1_145 1.1872123833745718e+00
z_1_145 1
x_1_146 0
s_1_146 7.1042942441999912e-01
z_1_146 1
x_1_147 1.1672491821646690e+02
s_1_147 0
z_1_147 0
x_1_148 4.9999263304782915e+04
s_1_148 5.0000736695217085e+04
z_1_148 5.0000736695217085e-01
x_1_149 1.1636553667113185e+02
s_1_149 0
z_1_149 0
x_1_150 0
s_1_150 5.7308679493144155e-01
z_1_150 1
x_1_151 0
s_1_151 9.9891692353412509e-01
z_1_151 1
x_1_152 0
s_1_152 1.36606897553429
z_1_152 1
x_1_153 0
s_1_153 1.3425109898671508e+00
z_1_153 1
x_1_154 1.1728552696295083e+02
s_1_154 0
z_1_154 0
x_1_155 0
s_1_155 7.6447135396301746e-01
z_1_155 1
x_1_156 1.1682010044902563e+02
s_1_156 0
z_1_156 0
x_1_157 1.1781990764848888e+02
s_1_157 0
z_1_157 0
x_1_158 0
s_1_158 6.5759030377375893e-01
z_1_158 1
x_1_159 1.1735340869799256e+02
s_1_159 0
z_1_159 0
x_2_0 5.8350357119066844e+04
